Welcome to the CBC MILP Solver 
Version: 2.10.12 
Build Date: Aug 20 2024 

command line - /opt/homebrew/bin/cbc computational_data/real_data/lp/iris_trial_001_margin.lp seconds 10.0 solve solu computational_data/real_data/solutions/iris_trial_001_margin.sol (default strategy 1)
 CoinLpIO::readLp(): Maximization problem reformulated as minimization
Coin0009I Switching back to maximization to get correct duals etc
seconds was changed from 1e+100 to 10
Continuous objective value is 30.0059 - 0.00 seconds
Cgl0003I 0 fixed, 0 tightened bounds, 279 strengthened rows, 4 substitutions
Cgl0003I 0 fixed, 0 tightened bounds, 237 strengthened rows, 0 substitutions
Cgl0003I 0 fixed, 0 tightened bounds, 229 strengthened rows, 0 substitutions
Cgl0003I 0 fixed, 0 tightened bounds, 227 strengthened rows, 0 substitutions
Cgl0003I 0 fixed, 0 tightened bounds, 223 strengthened rows, 0 substitutions
Cgl0003I 0 fixed, 0 tightened bounds, 223 strengthened rows, 0 substitutions
Cgl0003I 0 fixed, 0 tightened bounds, 219 strengthened rows, 0 substitutions
Cgl0003I 0 fixed, 0 tightened bounds, 180 strengthened rows, 0 substitutions
Cgl0003I 0 fixed, 0 tightened bounds, 100 strengthened rows, 0 substitutions
Cgl0004I processed model has 288 rows, 50 columns (50 integer (50 of which binary)) and 3028 elements
Cbc0038I Initial state - 45 integers unsatisfied sum - 3.76923
Cbc0038I Pass   1: suminf.    0.00000 (0) obj. 30.0059 iterations 54
Cbc0038I Solution found of 30.0059
Cbc0038I Before mini branch and bound, 4 integers at bound fixed and 0 continuous
Cbc0038I Mini branch and bound did not improve solution (0.03 seconds)
Cbc0038I After 0.03 seconds - Feasibility pump exiting with objective of 30.0059 - took 0.00 seconds
Cbc0012I Integer solution of 30.005868 found by feasibility pump after 0 iterations and 0 nodes (0.03 seconds)
Cbc0001I Search completed - best objective 30.005868, took 0 iterations and 0 nodes (0.03 seconds)
Cbc0035I Maximum depth 0, 2 variables fixed on reduced cost
Cuts at root node changed objective from 30.0059 to 30.0059
Probing was tried 0 times and created 0 cuts of which 0 were active after adding rounds of cuts (0.000 seconds)
Gomory was tried 0 times and created 0 cuts of which 0 were active after adding rounds of cuts (0.000 seconds)
Knapsack was tried 0 times and created 0 cuts of which 0 were active after adding rounds of cuts (0.000 seconds)
Clique was tried 0 times and created 0 cuts of which 0 were active after adding rounds of cuts (0.000 seconds)
MixedIntegerRounding2 was tried 0 times and created 0 cuts of which 0 were active after adding rounds of cuts (0.000 seconds)
FlowCover was tried 0 times and created 0 cuts of which 0 were active after adding rounds of cuts (0.000 seconds)
TwoMirCuts was tried 0 times and created 0 cuts of which 0 were active after adding rounds of cuts (0.000 seconds)
ZeroHalf was tried 0 times and created 0 cuts of which 0 were active after adding rounds of cuts (0.000 seconds)

Result - Optimal solution found

Objective value:                30.00586800
Enumerated nodes:               0
Total iterations:               0
Time (CPU seconds):             0.03
Time (Wallclock seconds):       0.03

Total time (CPU seconds):       0.03   (Wallclock seconds):       0.03

